nbObj= 100;
Capacity= 119;
Profit =[ 35,304,766,433,331,326,575,405,381,235,772,730,947,804,683,328,666,624,958,155,223,949,155,909,107,240,333,146,63,459,380,518,768,828,548,718,165,271,723,206,25,59,414,987,504,276,582,632,933,131,793,602,217,628,402,120,278,134,734,870,269,176,290,903,617,54,232,70,878,739,882,56,740,554,13,765,273,482,746,784,121,475,844,153,593,704,453,337,300,368,18,944,72,203,514,883,176,338,605,444];
Weight =[ 235,203,328,372,816,309,324,760,51,353,839,916,94,828,80,69,631,784,56,641,832,149,705,535,495,879,969,279,301,97,786,45,141,78,334,122,18,320,179,829,445,357,204,828,445,235,793,702,459,480,848,309,872,939,834,426,530,43,472,589,146,202,807,223,33,761,655,449,697,279,210,512,541,825,776,281,940,562,737,715,838,353,544,74,243,826,760,192,243,664,132,290,778,169,987,634,710,371,490,549];
